c colouring generated by benchmark framework
p edge 300 21375
v 1 2
v 2 40
v 3 25
v 4 15
v 5 23
v 6 35
v 7 1
v 8 9
v 9 2
v 10 0
v 11 21
v 12 36
v 13 17
v 14 2
v 15 40
v 16 7
v 17 21
v 18 50
v 19 19
v 20 32
v 21 13
v 22 12
v 23 20
v 24 15
v 25 13
v 26 3
v 27 3
v 28 3
v 29 20
v 30 51
v 31 28
v 32 35
v 33 43
v 34 22
v 35 29
v 36 15
v 37 42
v 38 34
v 39 42
v 40 43
v 41 18
v 42 19
v 43 9
v 44 1
v 45 51
v 46 36
v 47 24
v 48 10
v 49 17
v 50 40
v 51 4
v 52 37
v 53 32
v 54 15
v 55 33
v 56 7
v 57 0
v 58 41
v 59 28
v 60 27
v 61 52
v 62 29
v 63 22
v 64 3
v 65 42
v 66 28
v 67 23
v 68 24
v 69 16
v 70 21
v 71 4
v 72 8
v 73 6
v 74 4
v 75 11
v 76 8
v 77 29
v 78 5
v 79 39
v 80 41
v 81 28
v 82 16
v 83 0
v 84 31
v 85 7
v 86 45
v 87 7
v 88 11
v 89 41
v 90 0
v 91 25
v 92 14
v 93 44
v 94 0
v 95 16
v 96 22
v 97 22
v 98 24
v 99 8
v 100 33
v 101 9
v 102 30
v 103 27
v 104 51
v 105 8
v 106 31
v 107 48
v 108 39
v 109 25
v 110 8
v 111 48
v 112 24
v 113 6
v 114 39
v 115 34
v 116 20
v 117 29
v 118 33
v 119 4
v 120 10
v 121 20
v 122 6
v 123 31
v 124 37
v 125 32
v 126 16
v 127 28
v 128 27
v 129 13
v 130 27
v 131 1
v 132 20
v 133 15
v 134 37
v 135 12
v 136 39
v 137 24
v 138 27
v 139 1
v 140 21
v 141 30
v 142 2
v 143 16
v 144 27
v 145 43
v 146 46
v 147 46
v 148 27
v 149 3
v 150 41
v 151 10
v 152 6
v 153 10
v 154 5
v 155 18
v 156 26
v 157 34
v 158 47
v 159 13
v 160 40
v 161 25
v 162 23
v 163 49
v 164 0
v 165 18
v 166 3
v 167 13
v 168 35
v 169 14
v 170 15
v 171 5
v 172 37
v 173 6
v 174 30
v 175 19
v 176 8
v 177 16
v 178 38
v 179 44
v 180 9
v 181 12
v 182 12
v 183 31
v 184 19
v 185 8
v 186 18
v 187 13
v 188 30
v 189 43
v 190 4
v 191 14
v 192 7
v 193 39
v 194 30
v 195 13
v 196 18
v 197 9
v 198 4
v 199 20
v 200 1
v 201 42
v 202 14
v 203 49
v 204 10
v 205 26
v 206 11
v 207 11
v 208 40
v 209 42
v 210 24
v 211 29
v 212 33
v 213 23
v 214 32
v 215 32
v 216 21
v 217 26
v 218 2
v 219 31
v 220 21
v 221 30
v 222 10
v 223 37
v 224 9
v 225 49
v 226 36
v 227 16
v 228 52
v 229 5
v 230 35
v 231 7
v 232 0
v 233 22
v 234 12
v 235 48
v 236 6
v 237 14
v 238 23
v 239 2
v 240 17
v 241 47
v 242 52
v 243 21
v 244 12
v 245 19
v 246 11
v 247 17
v 248 13
v 249 0
v 250 34
v 251 16
v 252 2
v 253 38
v 254 14
v 255 6
v 256 1
v 257 17
v 258 14
v 259 39
v 260 34
v 261 5
v 262 3
v 263 19
v 264 10
v 265 36
v 266 26
v 267 25
v 268 37
v 269 7
v 270 18
v 271 23
v 272 22
v 273 5
v 274 22
v 275 2
v 276 20
v 277 11
v 278 24
v 279 3
v 280 17
v 281 17
v 282 23
v 283 32
v 284 35
v 285 38
v 286 14
v 287 26
v 288 1
v 289 31
v 290 19
v 291 11
v 292 5
v 293 27
v 294 5
v 295 15
v 296 8
v 297 24
v 298 30
v 299 1
v 300 9
